&CONTROL
  calculation = 'bands'
  outdir = './out/'
  prefix = 'TiS'
  !etot_conv_thr =   4.0000000000d-05
  !forc_conv_thr =   1.0000000000d-04
  !pseudo_dir = './pseudo/'
  !verbosity = 'high'
/
&SYSTEM
  !ibrav = 0
  ibrav = 4
  a = 3.2540
  c = 6.4839
  nat = 4
  ntyp = 2
  occupations = 'smearing'
  smearing = 'mv'
  nbnd = 40
  degauss =   1.4699723600d-02
  ecutwfc =   3.5000000000d+01
  !nosym = .true.
  !nspin = 2
  !ecutrho =   2.8000000000d+02
  !starting_magnetization(1) =   1.0000000000d-01
  !starting_magnetization(2) =   4.1666666667d-01
/
&ELECTRONS
  conv_thr =   8.0000000000d-10
  mixing_beta =   4.0000000000d-01
  !electron_maxstep = 80
/
ATOMIC_SPECIES
S      32.065 s_pbe_v1.4.uspp.F.UPF
Ti     47.867 ti_pbe_v1.4.uspp.F.UPF
ATOMIC_POSITIONS crystal
S            0.6666907186       0.3333814371       0.2500000000 
S            0.3333092814       0.6666185629       0.7500000000 
Ti           0.0000000000       0.0000000000       0.0000000000 
Ti           0.0000000000       0.0000000000       0.5000000000 
K_POINTS  crystal
500
0.0000000000000000 0.0000000000000000 0.0000000000000000 1
0.0102040816326531 0.0000000000000000 0.0000000000000000 1
0.0204081632653061 0.0000000000000000 0.0000000000000000 1
0.0306122448979592 0.0000000000000000 0.0000000000000000 1
0.0408163265306122 0.0000000000000000 0.0000000000000000 1
0.0510204081632653 0.0000000000000000 0.0000000000000000 1
0.0612244897959184 0.0000000000000000 0.0000000000000000 1
0.0714285714285714 0.0000000000000000 0.0000000000000000 1
0.0816326530612245 0.0000000000000000 0.0000000000000000 1
0.0918367346938776 0.0000000000000000 0.0000000000000000 1
0.1020408163265306 0.0000000000000000 0.0000000000000000 1
0.1122448979591837 0.0000000000000000 0.0000000000000000 1
0.1224489795918367 0.0000000000000000 0.0000000000000000 1
0.1326530612244898 0.0000000000000000 0.0000000000000000 1
0.1428571428571428 0.0000000000000000 0.0000000000000000 1
0.1530612244897959 0.0000000000000000 0.0000000000000000 1
0.1632653061224490 0.0000000000000000 0.0000000000000000 1
0.1734693877551020 0.0000000000000000 0.0000000000000000 1
0.1836734693877551 0.0000000000000000 0.0000000000000000 1
0.1938775510204082 0.0000000000000000 0.0000000000000000 1
0.2040816326530612 0.0000000000000000 0.0000000000000000 1
0.2142857142857143 0.0000000000000000 0.0000000000000000 1
0.2244897959183673 0.0000000000000000 0.0000000000000000 1
0.2346938775510204 0.0000000000000000 0.0000000000000000 1
0.2448979591836735 0.0000000000000000 0.0000000000000000 1
0.2551020408163265 0.0000000000000000 0.0000000000000000 1
0.2653061224489796 0.0000000000000000 0.0000000000000000 1
0.2755102040816326 0.0000000000000000 0.0000000000000000 1
0.2857142857142857 0.0000000000000000 0.0000000000000000 1
0.2959183673469388 0.0000000000000000 0.0000000000000000 1
0.3061224489795918 0.0000000000000000 0.0000000000000000 1
0.3163265306122449 0.0000000000000000 0.0000000000000000 1
0.3265306122448979 0.0000000000000000 0.0000000000000000 1
0.3367346938775510 0.0000000000000000 0.0000000000000000 1
0.3469387755102041 0.0000000000000000 0.0000000000000000 1
0.3571428571428572 0.0000000000000000 0.0000000000000000 1
0.3673469387755102 0.0000000000000000 0.0000000000000000 1
0.3775510204081632 0.0000000000000000 0.0000000000000000 1
0.3877551020408163 0.0000000000000000 0.0000000000000000 1
0.3979591836734694 0.0000000000000000 0.0000000000000000 1
0.4081632653061225 0.0000000000000000 0.0000000000000000 1
0.4183673469387755 0.0000000000000000 0.0000000000000000 1
0.4285714285714285 0.0000000000000000 0.0000000000000000 1
0.4387755102040816 0.0000000000000000 0.0000000000000000 1
0.4489795918367347 0.0000000000000000 0.0000000000000000 1
0.4591836734693878 0.0000000000000000 0.0000000000000000 1
0.4693877551020408 0.0000000000000000 0.0000000000000000 1
0.4795918367346939 0.0000000000000000 0.0000000000000000 1
0.4897959183673469 0.0000000000000000 0.0000000000000000 1
0.5000000000000000 0.0000000000000000 0.0000000000000000 1
0.5000000000000000 0.0000000000000000 0.0000000000000000 1
0.4897959183673469 0.0000000000000000 0.0000000000000000 1
0.4795918367346939 0.0000000000000000 0.0000000000000000 1
0.4693877551020408 0.0000000000000000 0.0000000000000000 1
0.4591836734693878 0.0000000000000000 0.0000000000000000 1
0.4489795918367347 0.0000000000000000 0.0000000000000000 1
0.4387755102040816 0.0000000000000000 0.0000000000000000 1
0.4285714285714286 0.0000000000000000 0.0000000000000000 1
0.4183673469387755 0.0000000000000000 0.0000000000000000 1
0.4081632653061225 0.0000000000000000 0.0000000000000000 1
0.3979591836734694 0.0000000000000000 0.0000000000000000 1
0.3877551020408163 0.0000000000000000 0.0000000000000000 1
0.3775510204081632 0.0000000000000000 0.0000000000000000 1
0.3673469387755102 0.0000000000000000 0.0000000000000000 1
0.3571428571428572 0.0000000000000000 0.0000000000000000 1
0.3469387755102041 0.0000000000000000 0.0000000000000000 1
0.3367346938775511 0.0000000000000000 0.0000000000000000 1
0.3265306122448980 0.0000000000000000 0.0000000000000000 1
0.3163265306122449 0.0000000000000000 0.0000000000000000 1
0.3061224489795918 0.0000000000000000 0.0000000000000000 1
0.2959183673469388 0.0000000000000000 0.0000000000000000 1
0.2857142857142857 0.0000000000000000 0.0000000000000000 1
0.2755102040816326 0.0000000000000000 0.0000000000000000 1
0.2653061224489796 0.0000000000000000 0.0000000000000000 1
0.2551020408163265 0.0000000000000000 0.0000000000000000 1
0.2448979591836735 0.0000000000000000 0.0000000000000000 1
0.2346938775510204 0.0000000000000000 0.0000000000000000 1
0.2244897959183674 0.0000000000000000 0.0000000000000000 1
0.2142857142857143 0.0000000000000000 0.0000000000000000 1
0.2040816326530612 0.0000000000000000 0.0000000000000000 1
0.1938775510204082 0.0000000000000000 0.0000000000000000 1
0.1836734693877551 0.0000000000000000 0.0000000000000000 1
0.1734693877551021 0.0000000000000000 0.0000000000000000 1
0.1632653061224490 0.0000000000000000 0.0000000000000000 1
0.1530612244897959 0.0000000000000000 0.0000000000000000 1
0.1428571428571428 0.0000000000000000 0.0000000000000000 1
0.1326530612244898 0.0000000000000000 0.0000000000000000 1
0.1224489795918368 0.0000000000000000 0.0000000000000000 1
0.1122448979591837 0.0000000000000000 0.0000000000000000 1
0.1020408163265306 0.0000000000000000 0.0000000000000000 1
0.0918367346938775 0.0000000000000000 0.0000000000000000 1
0.0816326530612245 0.0000000000000000 0.0000000000000000 1
0.0714285714285715 0.0000000000000000 0.0000000000000000 1
0.0612244897959184 0.0000000000000000 0.0000000000000000 1
0.0510204081632653 0.0000000000000000 0.0000000000000000 1
0.0408163265306122 0.0000000000000000 0.0000000000000000 1
0.0306122448979592 0.0000000000000000 0.0000000000000000 1
0.0204081632653061 0.0000000000000000 0.0000000000000000 1
0.0102040816326531 0.0000000000000000 0.0000000000000000 1
0.0000000000000000 0.0000000000000000 0.0000000000000000 1
0.0000000000000000 0.0000000000000000 0.0000000000000000 1
0.0000000000000000 0.0000000000000000 0.0102040816326531 1
0.0000000000000000 0.0000000000000000 0.0204081632653061 1
0.0000000000000000 0.0000000000000000 0.0306122448979592 1
0.0000000000000000 0.0000000000000000 0.0408163265306122 1
0.0000000000000000 0.0000000000000000 0.0510204081632653 1
0.0000000000000000 0.0000000000000000 0.0612244897959184 1
0.0000000000000000 0.0000000000000000 0.0714285714285714 1
0.0000000000000000 0.0000000000000000 0.0816326530612245 1
0.0000000000000000 0.0000000000000000 0.0918367346938776 1
0.0000000000000000 0.0000000000000000 0.1020408163265306 1
0.0000000000000000 0.0000000000000000 0.1122448979591837 1
0.0000000000000000 0.0000000000000000 0.1224489795918367 1
0.0000000000000000 0.0000000000000000 0.1326530612244898 1
0.0000000000000000 0.0000000000000000 0.1428571428571428 1
0.0000000000000000 0.0000000000000000 0.1530612244897959 1
0.0000000000000000 0.0000000000000000 0.1632653061224490 1
0.0000000000000000 0.0000000000000000 0.1734693877551020 1
0.0000000000000000 0.0000000000000000 0.1836734693877551 1
0.0000000000000000 0.0000000000000000 0.1938775510204082 1
0.0000000000000000 0.0000000000000000 0.2040816326530612 1
0.0000000000000000 0.0000000000000000 0.2142857142857143 1
0.0000000000000000 0.0000000000000000 0.2244897959183673 1
0.0000000000000000 0.0000000000000000 0.2346938775510204 1
0.0000000000000000 0.0000000000000000 0.2448979591836735 1
0.0000000000000000 0.0000000000000000 0.2551020408163265 1
0.0000000000000000 0.0000000000000000 0.2653061224489796 1
0.0000000000000000 0.0000000000000000 0.2755102040816326 1
0.0000000000000000 0.0000000000000000 0.2857142857142857 1
0.0000000000000000 0.0000000000000000 0.2959183673469388 1
0.0000000000000000 0.0000000000000000 0.3061224489795918 1
0.0000000000000000 0.0000000000000000 0.3163265306122449 1
0.0000000000000000 0.0000000000000000 0.3265306122448979 1
0.0000000000000000 0.0000000000000000 0.3367346938775510 1
0.0000000000000000 0.0000000000000000 0.3469387755102041 1
0.0000000000000000 0.0000000000000000 0.3571428571428572 1
0.0000000000000000 0.0000000000000000 0.3673469387755102 1
0.0000000000000000 0.0000000000000000 0.3775510204081632 1
0.0000000000000000 0.0000000000000000 0.3877551020408163 1
0.0000000000000000 0.0000000000000000 0.3979591836734694 1
0.0000000000000000 0.0000000000000000 0.4081632653061225 1
0.0000000000000000 0.0000000000000000 0.4183673469387755 1
0.0000000000000000 0.0000000000000000 0.4285714285714285 1
0.0000000000000000 0.0000000000000000 0.4387755102040816 1
0.0000000000000000 0.0000000000000000 0.4489795918367347 1
0.0000000000000000 0.0000000000000000 0.4591836734693878 1
0.0000000000000000 0.0000000000000000 0.4693877551020408 1
0.0000000000000000 0.0000000000000000 0.4795918367346939 1
0.0000000000000000 0.0000000000000000 0.4897959183673469 1
0.0000000000000000 0.0000000000000000 0.5000000000000000 1
0.0000000000000000 0.0000000000000000 0.5000000000000000 1
0.0102040816326531 0.0000000000000000 0.5000000000000000 1
0.0204081632653061 0.0000000000000000 0.5000000000000000 1
0.0306122448979592 0.0000000000000000 0.5000000000000000 1
0.0408163265306122 0.0000000000000000 0.5000000000000000 1
0.0510204081632653 0.0000000000000000 0.5000000000000000 1
0.0612244897959184 0.0000000000000000 0.5000000000000000 1
0.0714285714285714 0.0000000000000000 0.5000000000000000 1
0.0816326530612245 0.0000000000000000 0.5000000000000000 1
0.0918367346938776 0.0000000000000000 0.5000000000000000 1
0.1020408163265306 0.0000000000000000 0.5000000000000000 1
0.1122448979591837 0.0000000000000000 0.5000000000000000 1
0.1224489795918367 0.0000000000000000 0.5000000000000000 1
0.1326530612244898 0.0000000000000000 0.5000000000000000 1
0.1428571428571428 0.0000000000000000 0.5000000000000000 1
0.1530612244897959 0.0000000000000000 0.5000000000000000 1
0.1632653061224490 0.0000000000000000 0.5000000000000000 1
0.1734693877551020 0.0000000000000000 0.5000000000000000 1
0.1836734693877551 0.0000000000000000 0.5000000000000000 1
0.1938775510204082 0.0000000000000000 0.5000000000000000 1
0.2040816326530612 0.0000000000000000 0.5000000000000000 1
0.2142857142857143 0.0000000000000000 0.5000000000000000 1
0.2244897959183673 0.0000000000000000 0.5000000000000000 1
0.2346938775510204 0.0000000000000000 0.5000000000000000 1
0.2448979591836735 0.0000000000000000 0.5000000000000000 1
0.2551020408163265 0.0000000000000000 0.5000000000000000 1
0.2653061224489796 0.0000000000000000 0.5000000000000000 1
0.2755102040816326 0.0000000000000000 0.5000000000000000 1
0.2857142857142857 0.0000000000000000 0.5000000000000000 1
0.2959183673469388 0.0000000000000000 0.5000000000000000 1
0.3061224489795918 0.0000000000000000 0.5000000000000000 1
0.3163265306122449 0.0000000000000000 0.5000000000000000 1
0.3265306122448979 0.0000000000000000 0.5000000000000000 1
0.3367346938775510 0.0000000000000000 0.5000000000000000 1
0.3469387755102041 0.0000000000000000 0.5000000000000000 1
0.3571428571428572 0.0000000000000000 0.5000000000000000 1
0.3673469387755102 0.0000000000000000 0.5000000000000000 1
0.3775510204081632 0.0000000000000000 0.5000000000000000 1
0.3877551020408163 0.0000000000000000 0.5000000000000000 1
0.3979591836734694 0.0000000000000000 0.5000000000000000 1
0.4081632653061225 0.0000000000000000 0.5000000000000000 1
0.4183673469387755 0.0000000000000000 0.5000000000000000 1
0.4285714285714285 0.0000000000000000 0.5000000000000000 1
0.4387755102040816 0.0000000000000000 0.5000000000000000 1
0.4489795918367347 0.0000000000000000 0.5000000000000000 1
0.4591836734693878 0.0000000000000000 0.5000000000000000 1
0.4693877551020408 0.0000000000000000 0.5000000000000000 1
0.4795918367346939 0.0000000000000000 0.5000000000000000 1
0.4897959183673469 0.0000000000000000 0.5000000000000000 1
0.5000000000000000 0.0000000000000000 0.5000000000000000 1
0.5000000000000000 0.0000000000000000 0.5000000000000000 1
0.4965979591836734 0.0068020408163265 0.5000000000000000 1
0.4931959183673469 0.0136040816326531 0.5000000000000000 1
0.4897938775510204 0.0204061224489796 0.5000000000000000 1
0.4863918367346939 0.0272081632653061 0.5000000000000000 1
0.4829897959183673 0.0340102040816327 0.5000000000000000 1
0.4795877551020408 0.0408122448979592 0.5000000000000000 1
0.4761857142857143 0.0476142857142857 0.5000000000000000 1
0.4727836734693878 0.0544163265306122 0.5000000000000000 1
0.4693816326530612 0.0612183673469388 0.5000000000000000 1
0.4659795918367347 0.0680204081632653 0.5000000000000000 1
0.4625775510204082 0.0748224489795918 0.5000000000000000 1
0.4591755102040816 0.0816244897959184 0.5000000000000000 1
0.4557734693877551 0.0884265306122449 0.5000000000000000 1
0.4523714285714286 0.0952285714285714 0.5000000000000000 1
0.4489693877551020 0.1020306122448980 0.5000000000000000 1
0.4455673469387755 0.1088326530612245 0.5000000000000000 1
0.4421653061224490 0.1156346938775510 0.5000000000000000 1
0.4387632653061224 0.1224367346938776 0.5000000000000000 1
0.4353612244897959 0.1292387755102041 0.5000000000000000 1
0.4319591836734694 0.1360408163265306 0.5000000000000000 1
0.4285571428571429 0.1428428571428571 0.5000000000000000 1
0.4251551020408163 0.1496448979591837 0.5000000000000000 1
0.4217530612244898 0.1564469387755102 0.5000000000000000 1
0.4183510204081632 0.1632489795918367 0.5000000000000000 1
0.4149489795918367 0.1700510204081633 0.5000000000000000 1
0.4115469387755102 0.1768530612244898 0.5000000000000000 1
0.4081448979591837 0.1836551020408163 0.5000000000000000 1
0.4047428571428571 0.1904571428571428 0.5000000000000000 1
0.4013408163265306 0.1972591836734694 0.5000000000000000 1
0.3979387755102041 0.2040612244897959 0.5000000000000000 1
0.3945367346938775 0.2108632653061225 0.5000000000000000 1
0.3911346938775510 0.2176653061224489 0.5000000000000000 1
0.3877326530612245 0.2244673469387755 0.5000000000000000 1
0.3843306122448980 0.2312693877551020 0.5000000000000000 1
0.3809285714285714 0.2380714285714286 0.5000000000000000 1
0.3775265306122449 0.2448734693877551 0.5000000000000000 1
0.3741244897959184 0.2516755102040816 0.5000000000000000 1
0.3707224489795918 0.2584775510204081 0.5000000000000000 1
0.3673204081632653 0.2652795918367347 0.5000000000000000 1
0.3639183673469387 0.2720816326530612 0.5000000000000000 1
0.3605163265306122 0.2788836734693877 0.5000000000000000 1
0.3571142857142857 0.2856857142857143 0.5000000000000000 1
0.3537122448979592 0.2924877551020408 0.5000000000000000 1
0.3503102040816326 0.2992897959183674 0.5000000000000000 1
0.3469081632653061 0.3060918367346939 0.5000000000000000 1
0.3435061224489796 0.3128938775510204 0.5000000000000000 1
0.3401040816326530 0.3196959183673469 0.5000000000000000 1
0.3367020408163265 0.3264979591836735 0.5000000000000000 1
0.3333000000000000 0.3333000000000000 0.5000000000000000 1
0.3333000000000000 0.3333000000000000 0.5000000000000000 1
0.3264979591836735 0.3264979591836735 0.5000000000000000 1
0.3196959183673469 0.3196959183673469 0.5000000000000000 1
0.3128938775510204 0.3128938775510204 0.5000000000000000 1
0.3060918367346939 0.3060918367346939 0.5000000000000000 1
0.2992897959183674 0.2992897959183674 0.5000000000000000 1
0.2924877551020408 0.2924877551020408 0.5000000000000000 1
0.2856857142857143 0.2856857142857143 0.5000000000000000 1
0.2788836734693877 0.2788836734693877 0.5000000000000000 1
0.2720816326530612 0.2720816326530612 0.5000000000000000 1
0.2652795918367347 0.2652795918367347 0.5000000000000000 1
0.2584775510204081 0.2584775510204081 0.5000000000000000 1
0.2516755102040816 0.2516755102040816 0.5000000000000000 1
0.2448734693877551 0.2448734693877551 0.5000000000000000 1
0.2380714285714286 0.2380714285714286 0.5000000000000000 1
0.2312693877551020 0.2312693877551020 0.5000000000000000 1
0.2244673469387755 0.2244673469387755 0.5000000000000000 1
0.2176653061224490 0.2176653061224490 0.5000000000000000 1
0.2108632653061224 0.2108632653061224 0.5000000000000000 1
0.2040612244897959 0.2040612244897959 0.5000000000000000 1
0.1972591836734694 0.1972591836734694 0.5000000000000000 1
0.1904571428571429 0.1904571428571429 0.5000000000000000 1
0.1836551020408163 0.1836551020408163 0.5000000000000000 1
0.1768530612244898 0.1768530612244898 0.5000000000000000 1
0.1700510204081633 0.1700510204081633 0.5000000000000000 1
0.1632489795918367 0.1632489795918367 0.5000000000000000 1
0.1564469387755102 0.1564469387755102 0.5000000000000000 1
0.1496448979591837 0.1496448979591837 0.5000000000000000 1
0.1428428571428572 0.1428428571428572 0.5000000000000000 1
0.1360408163265306 0.1360408163265306 0.5000000000000000 1
0.1292387755102041 0.1292387755102041 0.5000000000000000 1
0.1224367346938775 0.1224367346938775 0.5000000000000000 1
0.1156346938775510 0.1156346938775510 0.5000000000000000 1
0.1088326530612245 0.1088326530612245 0.5000000000000000 1
0.1020306122448980 0.1020306122448980 0.5000000000000000 1
0.0952285714285714 0.0952285714285714 0.5000000000000000 1
0.0884265306122449 0.0884265306122449 0.5000000000000000 1
0.0816244897959184 0.0816244897959184 0.5000000000000000 1
0.0748224489795918 0.0748224489795918 0.5000000000000000 1
0.0680204081632653 0.0680204081632653 0.5000000000000000 1
0.0612183673469388 0.0612183673469388 0.5000000000000000 1
0.0544163265306122 0.0544163265306122 0.5000000000000000 1
0.0476142857142857 0.0476142857142857 0.5000000000000000 1
0.0408122448979592 0.0408122448979592 0.5000000000000000 1
0.0340102040816326 0.0340102040816326 0.5000000000000000 1
0.0272081632653061 0.0272081632653061 0.5000000000000000 1
0.0204061224489796 0.0204061224489796 0.5000000000000000 1
0.0136040816326531 0.0136040816326531 0.5000000000000000 1
0.0068020408163265 0.0068020408163265 0.5000000000000000 1
0.0000000000000000 0.0000000000000000 0.5000000000000000 1
0.0000000000000000 0.0000000000000000 0.5000000000000000 1
0.0102040816326531 0.0000000000000000 0.5000000000000000 1
0.0204081632653061 0.0000000000000000 0.5000000000000000 1
0.0306122448979592 0.0000000000000000 0.5000000000000000 1
0.0408163265306122 0.0000000000000000 0.5000000000000000 1
0.0510204081632653 0.0000000000000000 0.5000000000000000 1
0.0612244897959184 0.0000000000000000 0.5000000000000000 1
0.0714285714285714 0.0000000000000000 0.5000000000000000 1
0.0816326530612245 0.0000000000000000 0.5000000000000000 1
0.0918367346938776 0.0000000000000000 0.5000000000000000 1
0.1020408163265306 0.0000000000000000 0.5000000000000000 1
0.1122448979591837 0.0000000000000000 0.5000000000000000 1
0.1224489795918367 0.0000000000000000 0.5000000000000000 1
0.1326530612244898 0.0000000000000000 0.5000000000000000 1
0.1428571428571428 0.0000000000000000 0.5000000000000000 1
0.1530612244897959 0.0000000000000000 0.5000000000000000 1
0.1632653061224490 0.0000000000000000 0.5000000000000000 1
0.1734693877551020 0.0000000000000000 0.5000000000000000 1
0.1836734693877551 0.0000000000000000 0.5000000000000000 1
0.1938775510204082 0.0000000000000000 0.5000000000000000 1
0.2040816326530612 0.0000000000000000 0.5000000000000000 1
0.2142857142857143 0.0000000000000000 0.5000000000000000 1
0.2244897959183673 0.0000000000000000 0.5000000000000000 1
0.2346938775510204 0.0000000000000000 0.5000000000000000 1
0.2448979591836735 0.0000000000000000 0.5000000000000000 1
0.2551020408163265 0.0000000000000000 0.5000000000000000 1
0.2653061224489796 0.0000000000000000 0.5000000000000000 1
0.2755102040816326 0.0000000000000000 0.5000000000000000 1
0.2857142857142857 0.0000000000000000 0.5000000000000000 1
0.2959183673469388 0.0000000000000000 0.5000000000000000 1
0.3061224489795918 0.0000000000000000 0.5000000000000000 1
0.3163265306122449 0.0000000000000000 0.5000000000000000 1
0.3265306122448979 0.0000000000000000 0.5000000000000000 1
0.3367346938775510 0.0000000000000000 0.5000000000000000 1
0.3469387755102041 0.0000000000000000 0.5000000000000000 1
0.3571428571428572 0.0000000000000000 0.5000000000000000 1
0.3673469387755102 0.0000000000000000 0.5000000000000000 1
0.3775510204081632 0.0000000000000000 0.5000000000000000 1
0.3877551020408163 0.0000000000000000 0.5000000000000000 1
0.3979591836734694 0.0000000000000000 0.5000000000000000 1
0.4081632653061225 0.0000000000000000 0.5000000000000000 1
0.4183673469387755 0.0000000000000000 0.5000000000000000 1
0.4285714285714285 0.0000000000000000 0.5000000000000000 1
0.4387755102040816 0.0000000000000000 0.5000000000000000 1
0.4489795918367347 0.0000000000000000 0.5000000000000000 1
0.4591836734693878 0.0000000000000000 0.5000000000000000 1
0.4693877551020408 0.0000000000000000 0.5000000000000000 1
0.4795918367346939 0.0000000000000000 0.5000000000000000 1
0.4897959183673469 0.0000000000000000 0.5000000000000000 1
0.5000000000000000 0.0000000000000000 0.5000000000000000 1
0.5000000000000000 0.0000000000000000 0.5000000000000000 1
0.5000000000000000 0.0000000000000000 0.4897959183673469 1
0.5000000000000000 0.0000000000000000 0.4795918367346939 1
0.5000000000000000 0.0000000000000000 0.4693877551020408 1
0.5000000000000000 0.0000000000000000 0.4591836734693878 1
0.5000000000000000 0.0000000000000000 0.4489795918367347 1
0.5000000000000000 0.0000000000000000 0.4387755102040816 1
0.5000000000000000 0.0000000000000000 0.4285714285714286 1
0.5000000000000000 0.0000000000000000 0.4183673469387755 1
0.5000000000000000 0.0000000000000000 0.4081632653061225 1
0.5000000000000000 0.0000000000000000 0.3979591836734694 1
0.5000000000000000 0.0000000000000000 0.3877551020408163 1
0.5000000000000000 0.0000000000000000 0.3775510204081632 1
0.5000000000000000 0.0000000000000000 0.3673469387755102 1
0.5000000000000000 0.0000000000000000 0.3571428571428572 1
0.5000000000000000 0.0000000000000000 0.3469387755102041 1
0.5000000000000000 0.0000000000000000 0.3367346938775511 1
0.5000000000000000 0.0000000000000000 0.3265306122448980 1
0.5000000000000000 0.0000000000000000 0.3163265306122449 1
0.5000000000000000 0.0000000000000000 0.3061224489795918 1
0.5000000000000000 0.0000000000000000 0.2959183673469388 1
0.5000000000000000 0.0000000000000000 0.2857142857142857 1
0.5000000000000000 0.0000000000000000 0.2755102040816326 1
0.5000000000000000 0.0000000000000000 0.2653061224489796 1
0.5000000000000000 0.0000000000000000 0.2551020408163265 1
0.5000000000000000 0.0000000000000000 0.2448979591836735 1
0.5000000000000000 0.0000000000000000 0.2346938775510204 1
0.5000000000000000 0.0000000000000000 0.2244897959183674 1
0.5000000000000000 0.0000000000000000 0.2142857142857143 1
0.5000000000000000 0.0000000000000000 0.2040816326530612 1
0.5000000000000000 0.0000000000000000 0.1938775510204082 1
0.5000000000000000 0.0000000000000000 0.1836734693877551 1
0.5000000000000000 0.0000000000000000 0.1734693877551021 1
0.5000000000000000 0.0000000000000000 0.1632653061224490 1
0.5000000000000000 0.0000000000000000 0.1530612244897959 1
0.5000000000000000 0.0000000000000000 0.1428571428571428 1
0.5000000000000000 0.0000000000000000 0.1326530612244898 1
0.5000000000000000 0.0000000000000000 0.1224489795918368 1
0.5000000000000000 0.0000000000000000 0.1122448979591837 1
0.5000000000000000 0.0000000000000000 0.1020408163265306 1
0.5000000000000000 0.0000000000000000 0.0918367346938775 1
0.5000000000000000 0.0000000000000000 0.0816326530612245 1
0.5000000000000000 0.0000000000000000 0.0714285714285715 1
0.5000000000000000 0.0000000000000000 0.0612244897959184 1
0.5000000000000000 0.0000000000000000 0.0510204081632653 1
0.5000000000000000 0.0000000000000000 0.0408163265306122 1
0.5000000000000000 0.0000000000000000 0.0306122448979592 1
0.5000000000000000 0.0000000000000000 0.0204081632653061 1
0.5000000000000000 0.0000000000000000 0.0102040816326531 1
0.5000000000000000 0.0000000000000000 0.0000000000000000 1
0.5000000000000000 0.0000000000000000 0.0000000000000000 1
0.4965979591836734 0.0068020408163265 0.0000000000000000 1
0.4931959183673469 0.0136040816326531 0.0000000000000000 1
0.4897938775510204 0.0204061224489796 0.0000000000000000 1
0.4863918367346939 0.0272081632653061 0.0000000000000000 1
0.4829897959183673 0.0340102040816327 0.0000000000000000 1
0.4795877551020408 0.0408122448979592 0.0000000000000000 1
0.4761857142857143 0.0476142857142857 0.0000000000000000 1
0.4727836734693878 0.0544163265306122 0.0000000000000000 1
0.4693816326530612 0.0612183673469388 0.0000000000000000 1
0.4659795918367347 0.0680204081632653 0.0000000000000000 1
0.4625775510204082 0.0748224489795918 0.0000000000000000 1
0.4591755102040816 0.0816244897959184 0.0000000000000000 1
0.4557734693877551 0.0884265306122449 0.0000000000000000 1
0.4523714285714286 0.0952285714285714 0.0000000000000000 1
0.4489693877551020 0.1020306122448980 0.0000000000000000 1
0.4455673469387755 0.1088326530612245 0.0000000000000000 1
0.4421653061224490 0.1156346938775510 0.0000000000000000 1
0.4387632653061224 0.1224367346938776 0.0000000000000000 1
0.4353612244897959 0.1292387755102041 0.0000000000000000 1
0.4319591836734694 0.1360408163265306 0.0000000000000000 1
0.4285571428571429 0.1428428571428571 0.0000000000000000 1
0.4251551020408163 0.1496448979591837 0.0000000000000000 1
0.4217530612244898 0.1564469387755102 0.0000000000000000 1
0.4183510204081632 0.1632489795918367 0.0000000000000000 1
0.4149489795918367 0.1700510204081633 0.0000000000000000 1
0.4115469387755102 0.1768530612244898 0.0000000000000000 1
0.4081448979591837 0.1836551020408163 0.0000000000000000 1
0.4047428571428571 0.1904571428571428 0.0000000000000000 1
0.4013408163265306 0.1972591836734694 0.0000000000000000 1
0.3979387755102041 0.2040612244897959 0.0000000000000000 1
0.3945367346938775 0.2108632653061225 0.0000000000000000 1
0.3911346938775510 0.2176653061224489 0.0000000000000000 1
0.3877326530612245 0.2244673469387755 0.0000000000000000 1
0.3843306122448980 0.2312693877551020 0.0000000000000000 1
0.3809285714285714 0.2380714285714286 0.0000000000000000 1
0.3775265306122449 0.2448734693877551 0.0000000000000000 1
0.3741244897959184 0.2516755102040816 0.0000000000000000 1
0.3707224489795918 0.2584775510204081 0.0000000000000000 1
0.3673204081632653 0.2652795918367347 0.0000000000000000 1
0.3639183673469387 0.2720816326530612 0.0000000000000000 1
0.3605163265306122 0.2788836734693877 0.0000000000000000 1
0.3571142857142857 0.2856857142857143 0.0000000000000000 1
0.3537122448979592 0.2924877551020408 0.0000000000000000 1
0.3503102040816326 0.2992897959183674 0.0000000000000000 1
0.3469081632653061 0.3060918367346939 0.0000000000000000 1
0.3435061224489796 0.3128938775510204 0.0000000000000000 1
0.3401040816326530 0.3196959183673469 0.0000000000000000 1
0.3367020408163265 0.3264979591836735 0.0000000000000000 1
0.3333000000000000 0.3333000000000000 0.0000000000000000 1
0.3333000000000000 0.3333000000000000 0.0000000000000000 1
0.3333000000000000 0.3333000000000000 0.0102040816326531 1
0.3333000000000000 0.3333000000000000 0.0204081632653061 1
0.3333000000000000 0.3333000000000000 0.0306122448979592 1
0.3333000000000000 0.3333000000000000 0.0408163265306122 1
0.3333000000000000 0.3333000000000000 0.0510204081632653 1
0.3333000000000000 0.3333000000000000 0.0612244897959184 1
0.3333000000000000 0.3333000000000000 0.0714285714285714 1
0.3333000000000000 0.3333000000000000 0.0816326530612245 1
0.3333000000000000 0.3333000000000000 0.0918367346938776 1
0.3333000000000000 0.3333000000000000 0.1020408163265306 1
0.3333000000000000 0.3333000000000000 0.1122448979591837 1
0.3333000000000000 0.3333000000000000 0.1224489795918367 1
0.3333000000000000 0.3333000000000000 0.1326530612244898 1
0.3333000000000000 0.3333000000000000 0.1428571428571428 1
0.3333000000000000 0.3333000000000000 0.1530612244897959 1
0.3333000000000000 0.3333000000000000 0.1632653061224490 1
0.3333000000000000 0.3333000000000000 0.1734693877551020 1
0.3333000000000000 0.3333000000000000 0.1836734693877551 1
0.3333000000000000 0.3333000000000000 0.1938775510204082 1
0.3333000000000000 0.3333000000000000 0.2040816326530612 1
0.3333000000000000 0.3333000000000000 0.2142857142857143 1
0.3333000000000000 0.3333000000000000 0.2244897959183673 1
0.3333000000000000 0.3333000000000000 0.2346938775510204 1
0.3333000000000000 0.3333000000000000 0.2448979591836735 1
0.3333000000000000 0.3333000000000000 0.2551020408163265 1
0.3333000000000000 0.3333000000000000 0.2653061224489796 1
0.3333000000000000 0.3333000000000000 0.2755102040816326 1
0.3333000000000000 0.3333000000000000 0.2857142857142857 1
0.3333000000000000 0.3333000000000000 0.2959183673469388 1
0.3333000000000000 0.3333000000000000 0.3061224489795918 1
0.3333000000000000 0.3333000000000000 0.3163265306122449 1
0.3333000000000000 0.3333000000000000 0.3265306122448979 1
0.3333000000000000 0.3333000000000000 0.3367346938775510 1
0.3333000000000000 0.3333000000000000 0.3469387755102041 1
0.3333000000000000 0.3333000000000000 0.3571428571428572 1
0.3333000000000000 0.3333000000000000 0.3673469387755102 1
0.3333000000000000 0.3333000000000000 0.3775510204081632 1
0.3333000000000000 0.3333000000000000 0.3877551020408163 1
0.3333000000000000 0.3333000000000000 0.3979591836734694 1