&CONTROL
  calculation = 'scf'
  outdir = './out/'
  prefix = 'TiS'
  !pseudo_dir = './pseudo/'
  !etot_conv_thr =   4.0000000000d-05
  !forc_conv_thr =   1.0000000000d-04
  !verbosity = 'high'
/
&SYSTEM
  !ibrav = 4
  !a = 3.2540
  !c = 6.4839
  ibrav = 0
  nat = 4
  ntyp = 2
  occupations = 'smearing'
  smearing = 'mv'
  degauss =   1.4699723600d-02
  ecutwfc =   3.5000000000d+01
  !nosym = .true.
  !nspin = 2
  !ecutrho =   2.8000000000d+02
  !starting_magnetization(1) =   1.0000000000d-01
  !starting_magnetization(2) =   4.1666666667d-01
  !nbnd = 40
/
&ELECTRONS
  conv_thr =   8.0000000000d-10
  mixing_beta =   4.0000000000d-01
  !electron_maxstep = 80
/
ATOMIC_SPECIES
S      32.065 s_pbe_v1.4.uspp.F.UPF
Ti     47.867 ti_pbe_v1.4.uspp.F.UPF
ATOMIC_POSITIONS crystal
S            0.6666907186       0.3333814371       0.2500000000 
S            0.3333092814       0.6666185629       0.7500000000 
Ti           0.0000000000       0.0000000000       0.0000000000 
Ti           0.0000000000       0.0000000000       0.5000000000 
K_POINTS automatic
13 13 11 0 0 0
CELL_PARAMETERS angstrom
      3.2963840755       0.0000000000       0.0000000000
     -1.6481920377       2.8547523500       0.0000000000
      0.0000000000       0.0000000000       6.5815142550