&BANDS
 outdir = './out/',
 prefix = 'TiS',
 filband = 'TiS.bands'
/
